out/bwp_4_11_1_lp.out
11
0 7    1 8
1 9    2 10
3 0    3 0
0 2    0 3
2 8    3 8
0 9    0 10
3 9    3 10
0 0    2 1
2 2    3 4
0 4    1 6
2 5    3 7
