out/bwp_4_11_1_lp.log
Tried aggregator 2 times.
MIP Presolve eliminated 14 rows and 4 columns.
MIP Presolve modified 226 coefficients.
Aggregator did 226 substitutions.
Reduced MIP has 1236 rows, 1125 columns, and 3100 nonzeros.
Reduced MIP has 668 binaries, 23 generals, 0 SOSs, and 220 indicators.
Presolve time = 0.01 sec. (3.35 ticks)
Probing fixed 39 vars, tightened 276 bounds.
Probing time = 0.04 sec. (12.68 ticks)
Tried aggregator 3 times.
MIP Presolve eliminated 57 rows and 51 columns.
MIP Presolve modified 592 coefficients.
Aggregator did 423 substitutions.
Reduced MIP has 756 rows, 651 columns, and 2304 nonzeros.
Reduced MIP has 512 binaries, 139 generals, 0 SOSs, and 194 indicators.
Presolve time = 0.01 sec. (4.51 ticks)
Probing fixed 0 vars, tightened 61 bounds.
Probing time = 0.01 sec. (4.48 ticks)
Tried aggregator 1 time.
Reduced MIP has 756 rows, 651 columns, and 2304 nonzeros.
Reduced MIP has 512 binaries, 139 generals, 0 SOSs, and 194 indicators.
Presolve time = 0.00 sec. (1.21 ticks)
Probing time = 0.01 sec. (2.13 ticks)
Clique table members: 1927.
MIP emphasis: balance optimality and feasibility.
MIP search method: dynamic search.
Parallel mode: deterministic, using up to 4 threads.
Root relaxation solution time = 0.00 sec. (1.94 ticks)

        Nodes                                         Cuts/
   Node  Left     Objective  IInf  Best Integer    Best Bound    ItCnt     Gap

      0     0       11.0000   285                     11.0000      215         
      0     0       11.0000    87                    Cuts: 15      226         
      0     0       11.0000   107                    Cuts: 82      286         
      0     0       11.0000   153                    Cuts: 16      304         
*     0+    0                           25.0000       11.0000      304   56.00%
*     0+    0                           12.0000       11.0000      304    8.33%

Repeating presolve.
Tried aggregator 2 times.
MIP Presolve eliminated 286 rows and 232 columns.
MIP Presolve modified 370 coefficients.
Aggregator did 11 substitutions.
Reduced MIP has 459 rows, 408 columns, and 1438 nonzeros.
Reduced MIP has 281 binaries, 127 generals, 0 SOSs, and 194 indicators.
Presolve time = 0.01 sec. (2.30 ticks)
Probing fixed 0 vars, tightened 52 bounds.
Probing time = 0.01 sec. (1.69 ticks)
Tried aggregator 1 time.
MIP Presolve modified 76 coefficients.
Reduced MIP has 459 rows, 408 columns, and 1438 nonzeros.
Reduced MIP has 281 binaries, 127 generals, 0 SOSs, and 194 indicators.
Presolve time = 0.00 sec. (0.73 ticks)
Represolve time = 0.02 sec. (5.83 ticks)
Probing time = 0.00 sec. (1.53 ticks)
Clique table members: 691.
MIP emphasis: balance optimality and feasibility.
MIP search method: dynamic search.
Parallel mode: deterministic, using up to 4 threads.
Root relaxation solution time = 0.00 sec. (1.27 ticks)

        Nodes                                         Cuts/
   Node  Left     Objective  IInf  Best Integer    Best Bound    ItCnt     Gap

*     0+    0                           12.0000       11.0000      424    8.33%
      0     0       11.0000   136       12.0000       11.0000      424    8.33%
      0     0       11.0000    70       12.0000      Cuts: 15      452    8.33%
      0     0       11.0000   103       12.0000      Cuts: 56      518    8.33%
      0     0       11.0000    17       12.0000       Cuts: 2      519    8.33%
      0     0       11.0000     8       12.0000      Cuts: 44      560    8.33%
      0     0       11.0000     8       12.0000      Cuts: 11      564    8.33%
*     0+    0                           11.0000       11.0000      564    0.00%
      0     0        cutoff             11.0000       11.0000      564    0.00%
Elapsed time = 0.45 sec. (169.94 ticks, tree = 0.00 MB, solutions = 3)

Clique cuts applied:  14
Cover cuts applied:  7
Implied bound cuts applied:  32
Mixed integer rounding cuts applied:  2
Zero-half cuts applied:  11
Gomory fractional cuts applied:  11

Root node processing (before b&c):
  Real time             =    0.45 sec. (169.99 ticks)
Parallel b&c, 4 threads:
  Real time             =    0.00 sec. (0.00 ticks)
  Sync time (average)   =    0.00 sec.
  Wait time (average)   =    0.00 sec.
                          ------------
Total (root+branch&cut) =    0.45 sec. (169.99 ticks)
